
Gurobi 12.0.2 (win64) logging started Thu Jun  5 10:48:49 2025

Set parameter LogFile to value "C:\Ioana\_uni\honours\slp\algorithm\Main_files\results\others\prox_tubules\Task_004_Sample003_irr_gurobi.log"
Gurobi Optimizer version 12.0.2 build v12.0.2rc0 (win64 - Windows 11.0 (26100.2))

CPU model: Intel(R) Core(TM) Ultra 5 125H, instruction set [SSE2|AVX|AVX2]
Thread count: 14 physical cores, 18 logical processors, using up to 18 threads

Non-default parameters:
TimeLimit  2200

Optimize a model with 47658 rows, 34811 columns and 147858 nonzeros
Model fingerprint: 0x1c52142c
Variable types: 17417 continuous, 17394 integer (17394 binary)
Coefficient statistics:
  Matrix range     [1e-04, 8e+04]
  Objective range  [2e-04, 3e+00]
  Bounds range     [1e+00, 1e+03]
  RHS range        [1e+00, 1e+00]
Presolve removed 31201 rows and 21852 columns
Presolve time: 0.34s
Presolved: 16457 rows, 12959 columns, 54692 nonzeros
Variable types: 6413 continuous, 6546 integer (6546 binary)

Root relaxation: objective 4.233129e-03, 2198 iterations, 0.10 seconds (0.18 work units)

    Nodes    |    Current Node    |     Objective Bounds      |     Work
 Expl Unexpl |  Obj  Depth IntInf | Incumbent    BestBd   Gap | It/Node Time

     0     0    0.00423    0   18          -    0.00423      -     -    0s
H    0     0                       2.7216907    0.00423   100%     -    0s
     0     0    0.88057    0   35    2.72169    0.88057  67.6%     -    0s
     0     0    0.88057    0   39    2.72169    0.88057  67.6%     -    1s
     0     0    0.88057    0   39    2.72169    0.88057  67.6%     -    1s
     0     0    1.55896    0   13    2.72169    1.55896  42.7%     -    1s
     0     0    1.55897    0   12    2.72169    1.55897  42.7%     -    1s
     0     0    2.62474    0    5    2.72169    2.62474  3.56%     -    1s

Explored 1 nodes (4920 simplex iterations) in 1.58 seconds (1.87 work units)
Thread count was 18 (of 18 available processors)

Solution count 1: 2.72169 

Optimal solution found (tolerance 1.00e-04)
Best objective 2.721690742581e+00, best bound 2.721690742581e+00, gap 0.0000%
